benchmarks_vrp/CMT3/no_cluster/CMT3_4.vrp
NAME: CMT3_4
TYPE: CVRP
COMMENT: 826.14 - Cluster Nr.4
DIMENSION: 13
CAPACITY: 200
EDGE_WEIGHT_TYPE: EUC_2D
NODE_COORD_TYPE: TWOD_COORDS
NODE_COORD_SECTION: 
9 2 48
5 10 43
8 20 65
4 31 67
1 27 69
2 13 52
7 15 77
10 35 69
11 8 56
12 15 60
6 2 60
13 6 68
3 35 35
DEPOT_SECTION: 
3
-1
DEMAND_SECTION: 
10 23
5 9
13 30
8 12
12 17
11 27
3 0
9 1
7 9
1 10
4 3
2 36
6 5
EOF
