benchmarks_vrp/CMT3/no_cluster/CMT3_4.tour
NAME: CMT3_4 solution
TYPE: TOUR
TOUR_SECTION:
3 2 12 8 4 10 1 7 13 6 11 9 5 -1
-1
EOF